
GUB cover cuts applied:  1
Clique cuts applied:  5
Cover cuts applied:  18
Implied bound cuts applied:  131
Flow cuts applied:  3
Mixed integer rounding cuts applied:  53
Zero-half cuts applied:  14

Root node processing (before b&c):
  Real time             =    0.19 sec. (133.81 ticks)
Parallel b&c, 4 threads:
  Real time             =    0.24 sec. (233.63 ticks)
  Sync time (average)   =    0.02 sec.
  Wait time (average)   =    0.00 sec.
                          ------------
Total (root+branch&cut) =    0.43 sec. (367.43 ticks)
Version identifier: 12.10.0.0 | 2019-11-26 | 843d4de
CPXPARAM_MIP_Interval                            10
CPXPARAM_MIP_Tolerances_AbsMIPGap                0.98999999999999999
Tried aggregator 2 times.
MIP Presolve eliminated 1244 rows and 582 columns.
MIP Presolve added 4 rows and 0 columns.
MIP Presolve modified 80 coefficients.
Aggregator did 11 substitutions.
Reduced MIP has 575 rows, 106 columns, and 1367 nonzeros.
Reduced MIP has 82 binaries, 24 generals, 0 SOSs, and 0 indicators.
Presolve time = 0.00 sec. (2.69 ticks)
Probing fixed 0 vars, tightened 9 bounds.
Probing time = 0.00 sec. (0.29 ticks)
Cover probing fixed 0 vars, tightened 13 bounds.
Tried aggregator 1 time.
Detecting symmetries...
MIP Presolve eliminated 371 rows and 0 columns.
MIP Presolve modified 9 coefficients.
Reduced MIP has 204 rows, 106 columns, and 625 nonzeros.
Reduced MIP has 82 binaries, 24 generals, 0 SOSs, and 0 indicators.
Presolve time = 0.00 sec. (0.58 ticks)
Probing fixed 0 vars, tightened 11 bounds.
Probing time = 0.00 sec. (0.14 ticks)
Cover probing fixed 0 vars, tightened 8 bounds.
Clique table members: 146.
MIP emphasis: balance optimality and feasibility.
MIP search method: dynamic search.
Parallel mode: deterministic, using up to 4 threads.
Root relaxation solution time = 0.00 sec. (0.80 ticks)

        Nodes                                         Cuts/
   Node  Left     Objective  IInf  Best Integer    Best Bound    ItCnt     Gap

      0     0       15.6667    55                     15.6667      100         
      0     0       15.6667    55                    Cuts: 25      150         
      0     0       15.6667    55                    Cuts: 97      224         
      0     0       15.6333    55                     Cuts: 6      309         
      0     0       15.6282    55                    Cuts: 55      330         
      0     0       15.5860    55                    Cuts: 23      351         
Detecting symmetries...
      0     0       15.5789    55                    Cuts: 27      374         
      0     0       15.5139    55                    Cuts: 63      400         
      0     0       15.4731    55                    Cuts: 24      423         
      0     0       15.3913    55                    Cuts: 24      452         
      0     0       15.2692    55                    Cuts: 31      466         
      0     0       15.2500    55                    Cuts: 29      505         
      0     0       15.1625    55                    Cuts: 37      525         
      0     0       15.1250    55                    Cuts: 21      554         
      0     0       15.0833    55                    Cuts: 30      595         
      0     0       15.0769    55                    Cuts: 38      648         
      0     0       15.0769    55                    Cuts: 63      700         
*     0+    0                            8.0000       15.0769            88.46%
*     0+    0                           14.0000       15.0769             7.69%
      0     0        cutoff             14.0000       14.0000      700    0.00%
Elapsed time = 0.08 sec. (64.46 ticks, tree = 0.01 MB, solutions = 2)
the number of Nodes = 0
